Maximise
12 x0_0 + 13 x0_1 + 12 x0_2 + 10 x0_3 + 10 x0_4 + 1 x0_5 + 2 x0_6 + 8 x0_7 + 4 x0_8 + 7 x1_0 + 13 x1_1 + 11 x1_2 + 12 x1_3 + 12 x1_4 + 1 x1_5 + 1 x1_6 + 10 x1_7 + 6 x1_8 + 11 x2_0 + 16 x2_1 + 13 x2_2 + 15 x2_3 + 10 x2_4 + 15 x2_5 + 14 x2_6 + 12 x2_7 + 11 x2_8 + 7 x3_0 + 11 x3_1 + 8 x3_2 + 10 x3_3 + 6 x3_4 + 3 x3_5 + 2 x3_6 + 7 x3_7 + 6 x3_8 + 7 x4_0 + 3 x4_1 + 8 x4_2 + 11 x4_3 + 9 x4_4 + 6 x4_5 + 4 x4_6 + 6 x4_7 + 10 x4_8 + 2 x5_0 + 7 x5_1 + 5 x5_2 + 7 x5_3 + 6 x5_4 + 12 x5_5 + 11 x5_6 + 4 x5_7 + 8 x5_8 + 14 x6_0 + 16 x6_1 + 8 x6_2 + 12 x6_3 + 13 x6_4 + 5 x6_5 + 7 x6_6 + 2 x6_7 + 9 x6_8 + 1 x7_0 + 6 x7_1 + 7 x7_2 + 5 x7_3 + 8 x7_4 + 14 x7_5 + 13 x7_6 + 0 x7_7 + 10 x7_8 + 15 x8_0 + 15 x8_1 + 12 x8_2 + 14 x8_3 + 15 x8_4 + 10 x8_5 + 10 x8_6 + 10 x8_7 + 14 x8_8 + 9 x9_0 + 7 x9_1 + 1 x9_2 + 5 x9_3 + 14 x9_4 + 10 x9_5 + 11 x9_6 + 9 x9_7 + 11 x9_8 + 9 x10_0 + 12 x10_1 + 15 x10_2 + 12 x10_3 + 1 x10_4 + 15 x10_5 + 9 x10_6 + 16 x10_7 + 12 x10_8
Subject To
c1:  x0_0 +  x0_1 +  x0_2 +  x0_3 +  x0_4 +  x0_5 +  x0_6 +  x0_7 +  x0_8 = 1
c2:  x1_0 +  x1_1 +  x1_2 +  x1_3 +  x1_4 +  x1_5 +  x1_6 +  x1_7 +  x1_8 = 1
c3:  x2_0 +  x2_1 +  x2_2 +  x2_3 +  x2_4 +  x2_5 +  x2_6 +  x2_7 +  x2_8 = 1
c4:  x3_0 +  x3_1 +  x3_2 +  x3_3 +  x3_4 +  x3_5 +  x3_6 +  x3_7 +  x3_8 = 1
c5:  x4_0 +  x4_1 +  x4_2 +  x4_3 +  x4_4 +  x4_5 +  x4_6 +  x4_7 +  x4_8 = 1
c6:  x5_0 +  x5_1 +  x5_2 +  x5_3 +  x5_4 +  x5_5 +  x5_6 +  x5_7 +  x5_8 = 1
c7:  x6_0 +  x6_1 +  x6_2 +  x6_3 +  x6_4 +  x6_5 +  x6_6 +  x6_7 +  x6_8 = 1
c8:  x7_0 +  x7_1 +  x7_2 +  x7_3 +  x7_4 +  x7_5 +  x7_6 +  x7_7 +  x7_8 = 1
c9:  x8_0 +  x8_1 +  x8_2 +  x8_3 +  x8_4 +  x8_5 +  x8_6 +  x8_7 +  x8_8 = 1
c10:  x9_0 +  x9_1 +  x9_2 +  x9_3 +  x9_4 +  x9_5 +  x9_6 +  x9_7 +  x9_8 = 1
c11:  x10_0 +  x10_1 +  x10_2 +  x10_3 +  x10_4 +  x10_5 +  x10_6 +  x10_7 +  x10_8 = 1
c12:  x0_0 +  x1_0 +  x2_0 +  x3_0 +  x4_0 +  x5_0 +  x6_0 +  x7_0 +  x8_0 +  x9_0 +  x10_0 <= 2
c13:  x0_1 +  x1_1 +  x2_1 +  x3_1 +  x4_1 +  x5_1 +  x6_1 +  x7_1 +  x8_1 +  x9_1 +  x10_1 <= 1
c14:  x0_2 +  x1_2 +  x2_2 +  x3_2 +  x4_2 +  x5_2 +  x6_2 +  x7_2 +  x8_2 +  x9_2 +  x10_2 <= 1
c15:  x0_3 +  x1_3 +  x2_3 +  x3_3 +  x4_3 +  x5_3 +  x6_3 +  x7_3 +  x8_3 +  x9_3 +  x10_3 <= 1
c16:  x0_4 +  x1_4 +  x2_4 +  x3_4 +  x4_4 +  x5_4 +  x6_4 +  x7_4 +  x8_4 +  x9_4 +  x10_4 <= 1
c17:  x0_5 +  x1_5 +  x2_5 +  x3_5 +  x4_5 +  x5_5 +  x6_5 +  x7_5 +  x8_5 +  x9_5 +  x10_5 <= 1
c18:  x0_6 +  x1_6 +  x2_6 +  x3_6 +  x4_6 +  x5_6 +  x6_6 +  x7_6 +  x8_6 +  x9_6 +  x10_6 <= 1
c19:  x0_7 +  x1_7 +  x2_7 +  x3_7 +  x4_7 +  x5_7 +  x6_7 +  x7_7 +  x8_7 +  x9_7 +  x10_7 <= 1
c20:  x0_8 +  x1_8 +  x2_8 +  x3_8 +  x4_8 +  x5_8 +  x6_8 +  x7_8 +  x8_8 +  x9_8 +  x10_8 <= 2
12 x0_0 + 13 x0_1 + 12 x0_2 + 10 x0_3 + 10 x0_4 + 1 x0_5 + 2 x0_6 + 8 x0_7 + 4 x0_8 <= 5
7 x1_0 + 13 x1_1 + 11 x1_2 + 12 x1_3 + 12 x1_4 + 1 x1_5 + 1 x1_6 + 10 x1_7 + 6 x1_8 <= 5
11 x2_0 + 16 x2_1 + 13 x2_2 + 15 x2_3 + 10 x2_4 + 15 x2_5 + 14 x2_6 + 12 x2_7 + 11 x2_8 <= 5
7 x3_0 + 11 x3_1 + 8 x3_2 + 10 x3_3 + 6 x3_4 + 3 x3_5 + 2 x3_6 + 7 x3_7 + 6 x3_8 <= 5
7 x4_0 + 3 x4_1 + 8 x4_2 + 11 x4_3 + 9 x4_4 + 6 x4_5 + 4 x4_6 + 6 x4_7 + 10 x4_8 <= 5
2 x5_0 + 7 x5_1 + 5 x5_2 + 7 x5_3 + 6 x5_4 + 12 x5_5 + 11 x5_6 + 4 x5_7 + 8 x5_8 <= 5
14 x6_0 + 16 x6_1 + 8 x6_2 + 12 x6_3 + 13 x6_4 + 5 x6_5 + 7 x6_6 + 2 x6_7 + 9 x6_8 <= 5
1 x7_0 + 6 x7_1 + 7 x7_2 + 5 x7_3 + 8 x7_4 + 14 x7_5 + 13 x7_6 + 0 x7_7 + 10 x7_8 <= 5
15 x8_0 + 15 x8_1 + 12 x8_2 + 14 x8_3 + 15 x8_4 + 10 x8_5 + 10 x8_6 + 10 x8_7 + 14 x8_8 <= 5
9 x9_0 + 7 x9_1 + 1 x9_2 + 5 x9_3 + 14 x9_4 + 10 x9_5 + 11 x9_6 + 9 x9_7 + 11 x9_8 <= 5
9 x10_0 + 12 x10_1 + 15 x10_2 + 12 x10_3 + 1 x10_4 + 15 x10_5 + 9 x10_6 + 16 x10_7 + 12 x10_8 <= 5
Bounds
0 <= x0_0 <= 1
0 <= x0_1 <= 1
0 <= x0_2 <= 1
0 <= x0_3 <= 1
0 <= x0_4 <= 1
0 <= x0_5 <= 1
0 <= x0_6 <= 1
0 <= x0_7 <= 1
0 <= x0_8 <= 1
0 <= x1_0 <= 1
0 <= x1_1 <= 1
0 <= x1_2 <= 1
0 <= x1_3 <= 1
0 <= x1_4 <= 1
0 <= x1_5 <= 1
0 <= x1_6 <= 1
0 <= x1_7 <= 1
0 <= x1_8 <= 1
0 <= x2_0 <= 1
0 <= x2_1 <= 1
0 <= x2_2 <= 1
0 <= x2_3 <= 1
0 <= x2_4 <= 1
0 <= x2_5 <= 1
0 <= x2_6 <= 1
0 <= x2_7 <= 1
0 <= x2_8 <= 1
0 <= x3_0 <= 1
0 <= x3_1 <= 1
0 <= x3_2 <= 1
0 <= x3_3 <= 1
0 <= x3_4 <= 1
0 <= x3_5 <= 1
0 <= x3_6 <= 1
0 <= x3_7 <= 1
0 <= x3_8 <= 1
0 <= x4_0 <= 1
0 <= x4_1 <= 1
0 <= x4_2 <= 1
0 <= x4_3 <= 1
0 <= x4_4 <= 1
0 <= x4_5 <= 1
0 <= x4_6 <= 1
0 <= x4_7 <= 1
0 <= x4_8 <= 1
0 <= x5_0 <= 1
0 <= x5_1 <= 1
0 <= x5_2 <= 1
0 <= x5_3 <= 1
0 <= x5_4 <= 1
0 <= x5_5 <= 1
0 <= x5_6 <= 1
0 <= x5_7 <= 1
0 <= x5_8 <= 1
0 <= x6_0 <= 1
0 <= x6_1 <= 1
0 <= x6_2 <= 1
0 <= x6_3 <= 1
0 <= x6_4 <= 1
0 <= x6_5 <= 1
0 <= x6_6 <= 1
0 <= x6_7 <= 1
0 <= x6_8 <= 1
0 <= x7_0 <= 1
0 <= x7_1 <= 1
0 <= x7_2 <= 1
0 <= x7_3 <= 1
0 <= x7_4 <= 1
0 <= x7_5 <= 1
0 <= x7_6 <= 1
0 <= x7_7 <= 1
0 <= x7_8 <= 1
0 <= x8_0 <= 1
0 <= x8_1 <= 1
0 <= x8_2 <= 1
0 <= x8_3 <= 1
0 <= x8_4 <= 1
0 <= x8_5 <= 1
0 <= x8_6 <= 1
0 <= x8_7 <= 1
0 <= x8_8 <= 1
0 <= x9_0 <= 1
0 <= x9_1 <= 1
0 <= x9_2 <= 1
0 <= x9_3 <= 1
0 <= x9_4 <= 1
0 <= x9_5 <= 1
0 <= x9_6 <= 1
0 <= x9_7 <= 1
0 <= x9_8 <= 1
0 <= x10_0 <= 1
0 <= x10_1 <= 1
0 <= x10_2 <= 1
0 <= x10_3 <= 1
0 <= x10_4 <= 1
0 <= x10_5 <= 1
0 <= x10_6 <= 1
0 <= x10_7 <= 1
0 <= x10_8 <= 1
Binary
x0_0 x0_1 x0_2 x0_3 x0_4 x0_5 x0_6 x0_7 x0_8 x1_0 x1_1 x1_2 x1_3 x1_4 x1_5 x1_6 x1_7 x1_8 x2_0 x2_1 x2_2 x2_3 x2_4 x2_5 x2_6 x2_7 x2_8 x3_0 x3_1 x3_2 x3_3 x3_4 x3_5 x3_6 x3_7 x3_8 x4_0 x4_1 x4_2 x4_3 x4_4 x4_5 x4_6 x4_7 x4_8 x5_0 x5_1 x5_2 x5_3 x5_4 x5_5 x5_6 x5_7 x5_8 x6_0 x6_1 x6_2 x6_3 x6_4 x6_5 x6_6 x6_7 x6_8 x7_0 x7_1 x7_2 x7_3 x7_4 x7_5 x7_6 x7_7 x7_8 x8_0 x8_1 x8_2 x8_3 x8_4 x8_5 x8_6 x8_7 x8_8 x9_0 x9_1 x9_2 x9_3 x9_4 x9_5 x9_6 x9_7 x9_8 x10_0 x10_1 x10_2 x10_3 x10_4 x10_5 x10_6 x10_7 x10_8 
End